\ Model Staff Scheduling Problem with Shift Overlap Constraints
\ LP format - for model browsing. Use MPS format to capture full model detail.
Minimize
  x[0,0] + x[0,1] + x[0,2] + x[0,3] + x[0,4] + x[0,5] + x[0,6] + x[0,7]
   + x[0,8] + x[0,9] + x[0,10] + x[0,11] + x[1,0] + x[1,1] + x[1,2]
   + x[1,3] + x[1,4] + x[1,5] + x[1,6] + x[1,7] + x[1,8] + x[1,9] + x[1,10]
   + x[1,11] + x[2,0] + x[2,1] + x[2,2] + x[2,3] + x[2,4] + x[2,5] + x[2,6]
   + x[2,7] + x[2,8] + x[2,9] + x[2,10] + x[2,11] + x[3,0] + x[3,1]
   + x[3,2] + x[3,3] + x[3,4] + x[3,5] + x[3,6] + x[3,7] + x[3,8] + x[3,9]
   + x[3,10] + x[3,11] + x[4,0] + x[4,1] + x[4,2] + x[4,3] + x[4,4]
   + x[4,5] + x[4,6] + x[4,7] + x[4,8] + x[4,9] + x[4,10] + x[4,11]
   + x[5,0] + x[5,1] + x[5,2] + x[5,3] + x[5,4] + x[5,5] + x[5,6] + x[5,7]
   + x[5,8] + x[5,9] + x[5,10] + x[5,11] + x[6,0] + x[6,1] + x[6,2]
   + x[6,3] + x[6,4] + x[6,5] + x[6,6] + x[6,7] + x[6,8] + x[6,9] + x[6,10]
   + x[6,11] + x[7,0] + x[7,1] + x[7,2] + x[7,3] + x[7,4] + x[7,5] + x[7,6]
   + x[7,7] + x[7,8] + x[7,9] + x[7,10] + x[7,11] + x[8,0] + x[8,1]
   + x[8,2] + x[8,3] + x[8,4] + x[8,5] + x[8,6] + x[8,7] + x[8,8] + x[8,9]
   + x[8,10] + x[8,11] + x[9,0] + x[9,1] + x[9,2] + x[9,3] + x[9,4]
   + x[9,5] + x[9,6] + x[9,7] + x[9,8] + x[9,9] + x[9,10] + x[9,11]
Subject To
 R0: x[0,0] + x[1,0] + x[2,0] + x[3,0] + x[4,0] + x[5,0] + x[6,0] + x[7,0]
   + x[8,0] + x[9,0] >= 10
 R1: x[0,1] + x[1,1] + x[2,1] + x[3,1] + x[4,1] + x[5,1] + x[6,1] + x[7,1]
   + x[8,1] + x[9,1] >= 9
 R2: x[0,2] + x[1,2] + x[2,2] + x[3,2] + x[4,2] + x[5,2] + x[6,2] + x[7,2]
   + x[8,2] + x[9,2] >= 10
 R3: x[0,3] + x[1,3] + x[2,3] + x[3,3] + x[4,3] + x[5,3] + x[6,3] + x[7,3]
   + x[8,3] + x[9,3] >= 9
 R4: x[0,4] + x[1,4] + x[2,4] + x[3,4] + x[4,4] + x[5,4] + x[6,4] + x[7,4]
   + x[8,4] + x[9,4] >= 4
 R5: x[0,5] + x[1,5] + x[2,5] + x[3,5] + x[4,5] + x[5,5] + x[6,5] + x[7,5]
   + x[8,5] + x[9,5] >= 1
 R6: x[0,6] + x[1,6] + x[2,6] + x[3,6] + x[4,6] + x[5,6] + x[6,6] + x[7,6]
   + x[8,6] + x[9,6] >= 7
 R7: x[0,7] + x[1,7] + x[2,7] + x[3,7] + x[4,7] + x[5,7] + x[6,7] + x[7,7]
   + x[8,7] + x[9,7] >= 6
 R8: x[0,8] + x[1,8] + x[2,8] + x[3,8] + x[4,8] + x[5,8] + x[6,8] + x[7,8]
   + x[8,8] + x[9,8] >= 1
 R9: x[0,9] + x[1,9] + x[2,9] + x[3,9] + x[4,9] + x[5,9] + x[6,9] + x[7,9]
   + x[8,9] + x[9,9] >= 4
 R10: x[0,10] + x[1,10] + x[2,10] + x[3,10] + x[4,10] + x[5,10] + x[6,10]
   + x[7,10] + x[8,10] + x[9,10] >= 2
 R11: x[0,11] + x[1,11] + x[2,11] + x[3,11] + x[4,11] + x[5,11] + x[6,11]
   + x[7,11] + x[8,11] + x[9,11] >= 3
 R12: 5.83 x[0,0] + 6.49 x[0,1] + 8.16 x[0,2] + 5.85 x[0,3] + 4.74 x[0,4]
   + 4.42 x[0,5] + 9.24 x[0,6] + 10.27 x[0,7] + 11.63 x[0,8] + 11.53 x[0,9]
   + 5.41 x[0,10] + 8.38 x[0,11] <= 31.85
 R13: 5.83 x[1,0] + 6.49 x[1,1] + 8.16 x[1,2] + 5.85 x[1,3] + 4.74 x[1,4]
   + 4.42 x[1,5] + 9.24 x[1,6] + 10.27 x[1,7] + 11.63 x[1,8] + 11.53 x[1,9]
   + 5.41 x[1,10] + 8.38 x[1,11] <= 43.91
 R14: 5.83 x[2,0] + 6.49 x[2,1] + 8.16 x[2,2] + 5.85 x[2,3] + 4.74 x[2,4]
   + 4.42 x[2,5] + 9.24 x[2,6] + 10.27 x[2,7] + 11.63 x[2,8] + 11.53 x[2,9]
   + 5.41 x[2,10] + 8.38 x[2,11] <= 31
 R15: 5.83 x[3,0] + 6.49 x[3,1] + 8.16 x[3,2] + 5.85 x[3,3] + 4.74 x[3,4]
   + 4.42 x[3,5] + 9.24 x[3,6] + 10.27 x[3,7] + 11.63 x[3,8] + 11.53 x[3,9]
   + 5.41 x[3,10] + 8.38 x[3,11] <= 31.59
 R16: 5.83 x[4,0] + 6.49 x[4,1] + 8.16 x[4,2] + 5.85 x[4,3] + 4.74 x[4,4]
   + 4.42 x[4,5] + 9.24 x[4,6] + 10.27 x[4,7] + 11.63 x[4,8] + 11.53 x[4,9]
   + 5.41 x[4,10] + 8.38 x[4,11] <= 48.64
 R17: 5.83 x[5,0] + 6.49 x[5,1] + 8.16 x[5,2] + 5.85 x[5,3] + 4.74 x[5,4]
   + 4.42 x[5,5] + 9.24 x[5,6] + 10.27 x[5,7] + 11.63 x[5,8] + 11.53 x[5,9]
   + 5.41 x[5,10] + 8.38 x[5,11] <= 39.06
 R18: 5.83 x[6,0] + 6.49 x[6,1] + 8.16 x[6,2] + 5.85 x[6,3] + 4.74 x[6,4]
   + 4.42 x[6,5] + 9.24 x[6,6] + 10.27 x[6,7] + 11.63 x[6,8] + 11.53 x[6,9]
   + 5.41 x[6,10] + 8.38 x[6,11] <= 35.86
 R19: 5.83 x[7,0] + 6.49 x[7,1] + 8.16 x[7,2] + 5.85 x[7,3] + 4.74 x[7,4]
   + 4.42 x[7,5] + 9.24 x[7,6] + 10.27 x[7,7] + 11.63 x[7,8] + 11.53 x[7,9]
   + 5.41 x[7,10] + 8.38 x[7,11] <= 47.17
 R20: 5.83 x[8,0] + 6.49 x[8,1] + 8.16 x[8,2] + 5.85 x[8,3] + 4.74 x[8,4]
   + 4.42 x[8,5] + 9.24 x[8,6] + 10.27 x[8,7] + 11.63 x[8,8] + 11.53 x[8,9]
   + 5.41 x[8,10] + 8.38 x[8,11] <= 35.57
 R21: 5.83 x[9,0] + 6.49 x[9,1] + 8.16 x[9,2] + 5.85 x[9,3] + 4.74 x[9,4]
   + 4.42 x[9,5] + 9.24 x[9,6] + 10.27 x[9,7] + 11.63 x[9,8] + 11.53 x[9,9]
   + 5.41 x[9,10] + 8.38 x[9,11] <= 48.32
 R22: 5.83 x[0,0] + 5.83 x[1,0] + 5.83 x[2,0] + 5.83 x[3,0] + 5.83 x[4,0]
   + 5.83 x[5,0] + 5.83 x[6,0] + 5.83 x[7,0] + 5.83 x[8,0] + 5.83 x[9,0]
   >= 2.88
 R23: 6.49 x[0,1] + 6.49 x[1,1] + 6.49 x[2,1] + 6.49 x[3,1] + 6.49 x[4,1]
   + 6.49 x[5,1] + 6.49 x[6,1] + 6.49 x[7,1] + 6.49 x[8,1] + 6.49 x[9,1]
   >= 2.88
 R24: 6.49 x[0,1] + 6.49 x[1,1] + 6.49 x[2,1] + 6.49 x[3,1] + 6.49 x[4,1]
   + 6.49 x[5,1] + 6.49 x[6,1] + 6.49 x[7,1] + 6.49 x[8,1] + 6.49 x[9,1]
   >= 2.79
 R25: 8.16 x[0,2] + 8.16 x[1,2] + 8.16 x[2,2] + 8.16 x[3,2] + 8.16 x[4,2]
   + 8.16 x[5,2] + 8.16 x[6,2] + 8.16 x[7,2] + 8.16 x[8,2] + 8.16 x[9,2]
   >= 2.79
 R26: 8.16 x[0,2] + 8.16 x[1,2] + 8.16 x[2,2] + 8.16 x[3,2] + 8.16 x[4,2]
   + 8.16 x[5,2] + 8.16 x[6,2] + 8.16 x[7,2] + 8.16 x[8,2] + 8.16 x[9,2]
   >= 1.47
 R27: 5.85 x[0,3] + 5.85 x[1,3] + 5.85 x[2,3] + 5.85 x[3,3] + 5.85 x[4,3]
   + 5.85 x[5,3] + 5.85 x[6,3] + 5.85 x[7,3] + 5.85 x[8,3] + 5.85 x[9,3]
   >= 1.47
 R28: 5.85 x[0,3] + 5.85 x[1,3] + 5.85 x[2,3] + 5.85 x[3,3] + 5.85 x[4,3]
   + 5.85 x[5,3] + 5.85 x[6,3] + 5.85 x[7,3] + 5.85 x[8,3] + 5.85 x[9,3]
   >= 2.62
 R29: 4.74 x[0,4] + 4.74 x[1,4] + 4.74 x[2,4] + 4.74 x[3,4] + 4.74 x[4,4]
   + 4.74 x[5,4] + 4.74 x[6,4] + 4.74 x[7,4] + 4.74 x[8,4] + 4.74 x[9,4]
   >= 2.62
 R30: 4.74 x[0,4] + 4.74 x[1,4] + 4.74 x[2,4] + 4.74 x[3,4] + 4.74 x[4,4]
   + 4.74 x[5,4] + 4.74 x[6,4] + 4.74 x[7,4] + 4.74 x[8,4] + 4.74 x[9,4]
   >= 1.39
 R31: 4.42 x[0,5] + 4.42 x[1,5] + 4.42 x[2,5] + 4.42 x[3,5] + 4.42 x[4,5]
   + 4.42 x[5,5] + 4.42 x[6,5] + 4.42 x[7,5] + 4.42 x[8,5] + 4.42 x[9,5]
   >= 1.39
 R32: 4.42 x[0,5] + 4.42 x[1,5] + 4.42 x[2,5] + 4.42 x[3,5] + 4.42 x[4,5]
   + 4.42 x[5,5] + 4.42 x[6,5] + 4.42 x[7,5] + 4.42 x[8,5] + 4.42 x[9,5]
   >= 2.43
 R33: 9.24 x[0,6] + 9.24 x[1,6] + 9.24 x[2,6] + 9.24 x[3,6] + 9.24 x[4,6]
   + 9.24 x[5,6] + 9.24 x[6,6] + 9.24 x[7,6] + 9.24 x[8,6] + 9.24 x[9,6]
   >= 2.43
 R34: 9.24 x[0,6] + 9.24 x[1,6] + 9.24 x[2,6] + 9.24 x[3,6] + 9.24 x[4,6]
   + 9.24 x[5,6] + 9.24 x[6,6] + 9.24 x[7,6] + 9.24 x[8,6] + 9.24 x[9,6]
   >= 1.13
 R35: 10.27 x[0,7] + 10.27 x[1,7] + 10.27 x[2,7] + 10.27 x[3,7]
   + 10.27 x[4,7] + 10.27 x[5,7] + 10.27 x[6,7] + 10.27 x[7,7]
   + 10.27 x[8,7] + 10.27 x[9,7] >= 1.13
 R36: 10.27 x[0,7] + 10.27 x[1,7] + 10.27 x[2,7] + 10.27 x[3,7]
   + 10.27 x[4,7] + 10.27 x[5,7] + 10.27 x[6,7] + 10.27 x[7,7]
   + 10.27 x[8,7] + 10.27 x[9,7] >= 1.2
 R37: 11.63 x[0,8] + 11.63 x[1,8] + 11.63 x[2,8] + 11.63 x[3,8]
   + 11.63 x[4,8] + 11.63 x[5,8] + 11.63 x[6,8] + 11.63 x[7,8]
   + 11.63 x[8,8] + 11.63 x[9,8] >= 1.2
 R38: 11.63 x[0,8] + 11.63 x[1,8] + 11.63 x[2,8] + 11.63 x[3,8]
   + 11.63 x[4,8] + 11.63 x[5,8] + 11.63 x[6,8] + 11.63 x[7,8]
   + 11.63 x[8,8] + 11.63 x[9,8] >= 2.63
 R39: 11.53 x[0,9] + 11.53 x[1,9] + 11.53 x[2,9] + 11.53 x[3,9]
   + 11.53 x[4,9] + 11.53 x[5,9] + 11.53 x[6,9] + 11.53 x[7,9]
   + 11.53 x[8,9] + 11.53 x[9,9] >= 2.63
 R40: 11.53 x[0,9] + 11.53 x[1,9] + 11.53 x[2,9] + 11.53 x[3,9]
   + 11.53 x[4,9] + 11.53 x[5,9] + 11.53 x[6,9] + 11.53 x[7,9]
   + 11.53 x[8,9] + 11.53 x[9,9] >= 1.36
 R41: 5.41 x[0,10] + 5.41 x[1,10] + 5.41 x[2,10] + 5.41 x[3,10]
   + 5.41 x[4,10] + 5.41 x[5,10] + 5.41 x[6,10] + 5.41 x[7,10]
   + 5.41 x[8,10] + 5.41 x[9,10] >= 1.36
 R42: 5.41 x[0,10] + 5.41 x[1,10] + 5.41 x[2,10] + 5.41 x[3,10]
   + 5.41 x[4,10] + 5.41 x[5,10] + 5.41 x[6,10] + 5.41 x[7,10]
   + 5.41 x[8,10] + 5.41 x[9,10] >= 1.25
 R43: 8.38 x[0,11] + 8.38 x[1,11] + 8.38 x[2,11] + 8.38 x[3,11]
   + 8.38 x[4,11] + 8.38 x[5,11] + 8.38 x[6,11] + 8.38 x[7,11]
   + 8.38 x[8,11] + 8.38 x[9,11] >= 1.25
Bounds
End
